* #variable= 941 #constraint= 328
min: +35 x1 +51 x2 +40 x3 +31 x4 +68 x5 +74 x6 +9 x7 +21 x8 +50 x9 +80 x10 +81 x11 +32 x12 +35 x13 +98 x14 +46 x15 +27 x16 +99 x17 +56 x18 +100 x19 +35 x20 +78 x21 +69 x22 +87 x23 +88 x24 +56 x25 +1 x26 +19 x27 +80 x28 +60 x29 +4 x30 +68 x31 +32 x32 +75 x33 +24 x34 +56 x35 +92 x36 +79 x37 +2 x38 +90 x39 +26 x40 +73 x41 +65 x42 +12 x43 +3 x44 +22 x45 +24 x46 +98 x47 +70 x48 +45 x49 +19 x50 +69 x51 +15 x52 +4 x53 +42 x54 +49 x55 +23 x56 +29 x57 +12 x58 +41 x59 +99 x60 +87 x61 +23 x62 +26 x63 +96 x64 +53 x65 +16 x66 +74 x67 +40 x68 +11 x69 +20 x70 +4 x71 +25 x72 +35 x73 +16 x74 +35 x75 +55 x76 +4 x77 +2 x78 +20 x79 +55 x80 +5 x81 +93 x82 +24 x83 +64 x84 +34 x85 +68 x86 +89 x87 +16 x88 +79 x89 +23 x90 +93 x91 +24 x92 +94 x93 +58 x94 +84 x95 +17 x96 +27 x97 +97 x98 +13 x99 +36 x100 +45 x101 +73 x102 +89 x103 +92 x104 +70 x105 +83 x106 +71 x107 +53 x108 +29 x109 +33 x110 +97 x111 +56 x112 +61 x113 +87 x114 +82 x115 +52 x116 +91 x117 +62 x118 +75 x119 +65 x120 +4 x121 +4 x122 +40 x123 +9 x124 +38 x125 +39 x126 +50 x127 +9 x128 +26 x129 +46 x130 +88 x131 +19 x132 +25 x133 +67 x134 +59 x135 +23 x136 +10 x137 +33 x138 +89 x139 +87 x140 +24 x141 +69 x142 +65 x143 +4 x144 +75 x145 +57 x146 +93 x147 +95 x148 +87 x149 +59 x150 +3 x151 +13 x152 +36 x153 +62 x154 +37 x155 +94 x156 ;

+35 x1 +51 x2 +40 x3 +31 x4 +68 x5 +74 x6 +9 x7 +21 x8 +50 x9 +80 x10 +81 x11 +32 x12 +35 x13 +98 x14 +46 x15 +27 x16 +99 x17 +56 x18 +100 x19 +35 x20 +78 x21 +69 x22 +87 x23 +88 x24 +56 x25 +1 x26 +19 x27 +80 x28 +60 x29 +4 x30 +68 x31 +32 x32 +75 x33 +24 x34 +56 x35 +92 x36 +79 x37 +2 x38 +90 x39 +26 x40 +73 x41 +65 x42 +12 x43 +3 x44 +22 x45 +24 x46 +98 x47 +70 x48 +45 x49 +19 x50 +69 x51 +15 x52 +4 x53 +42 x54 +49 x55 +23 x56 +29 x57 +12 x58 +41 x59 +99 x60 +87 x61 +23 x62 +26 x63 +96 x64 +53 x65 +16 x66 +74 x67 +40 x68 +11 x69 +20 x70 +4 x71 +25 x72 +35 x73 +16 x74 +35 x75 +55 x76 +4 x77 +2 x78 +20 x79 +55 x80 +5 x81 +93 x82 +24 x83 +64 x84 +34 x85 +68 x86 +89 x87 +16 x88 +79 x89 +23 x90 +93 x91 +24 x92 +94 x93 +58 x94 +84 x95 +17 x96 +27 x97 +97 x98 +13 x99 +36 x100 +45 x101 +73 x102 +89 x103 +92 x104 +70 x105 +83 x106 +71 x107 +53 x108 +29 x109 +33 x110 +97 x111 +56 x112 +61 x113 +87 x114 +82 x115 +52 x116 +91 x117 +62 x118 +75 x119 +65 x120 +4 x121 +4 x122 +40 x123 +9 x124 +38 x125 +39 x126 +50 x127 +9 x128 +26 x129 +46 x130 +88 x131 +19 x132 +25 x133 +67 x134 +59 x135 +23 x136 +10 x137 +33 x138 +89 x139 +87 x140 +24 x141 +69 x142 +65 x143 +4 x144 +75 x145 +57 x146 +93 x147 +95 x148 +87 x149 +59 x150 +3 x151 +13 x152 +36 x153 +62 x154 +37 x155 +94 x156 >= 0 ;

+1 x1 +1 x2 +1 x3 +1 x4 +1 x5 +1 x6 +1 x7 +1 x8 +1 x9 +1 x10 +1 x11 +1 x12 = 1 ;
+1 x13 +1 x14 +1 x15 +1 x16 +1 x17 +1 x18 +1 x19 +1 x20 +1 x21 +1 x22 +1 x23 +1 x24 = 1 ;
+1 x25 +1 x26 +1 x27 +1 x28 +1 x29 +1 x30 +1 x31 +1 x32 +1 x33 +1 x34 +1 x35 +1 x36 = 1 ;
+1 x37 +1 x38 +1 x39 +1 x40 +1 x41 +1 x42 +1 x43 +1 x44 +1 x45 +1 x46 +1 x47 +1 x48 = 1 ;
+1 x49 +1 x50 +1 x51 +1 x52 +1 x53 +1 x54 +1 x55 +1 x56 +1 x57 +1 x58 +1 x59 +1 x60 = 1 ;
+1 x61 +1 x62 +1 x63 +1 x64 +1 x65 +1 x66 +1 x67 +1 x68 +1 x69 +1 x70 +1 x71 +1 x72 = 1 ;
+1 x73 +1 x74 +1 x75 +1 x76 +1 x77 +1 x78 +1 x79 +1 x80 +1 x81 +1 x82 +1 x83 +1 x84 = 1 ;
+1 x85 +1 x86 +1 x87 +1 x88 +1 x89 +1 x90 +1 x91 +1 x92 +1 x93 +1 x94 +1 x95 +1 x96 = 1 ;
+1 x97 +1 x98 +1 x99 +1 x100 +1 x101 +1 x102 +1 x103 +1 x104 +1 x105 +1 x106 +1 x107 +1 x108 = 1 ;
+1 x109 +1 x110 +1 x111 +1 x112 +1 x113 +1 x114 +1 x115 +1 x116 +1 x117 +1 x118 +1 x119 +1 x120 = 1 ;
+1 x121 +1 x122 +1 x123 +1 x124 +1 x125 +1 x126 +1 x127 +1 x128 +1 x129 +1 x130 +1 x131 +1 x132 = 1 ;
+1 x133 +1 x134 +1 x135 +1 x136 +1 x137 +1 x138 +1 x139 +1 x140 +1 x141 +1 x142 +1 x143 +1 x144 = 1 ;
+1 x145 +1 x146 +1 x147 +1 x148 +1 x149 +1 x150 +1 x151 +1 x152 +1 x153 +1 x154 +1 x155 +1 x156 = 1 ;

+1 x13 +1 x25 +1 x37 +1 x49 +1 x61 +1 x73 +1 x85 +1 x97 +1 x109 +1 x121 +1 x133 +1 x145 = 1 ;
+1 x1 +1 x26 +1 x38 +1 x50 +1 x62 +1 x74 +1 x86 +1 x98 +1 x110 +1 x122 +1 x134 +1 x146 = 1 ;
+1 x2 +1 x14 +1 x39 +1 x51 +1 x63 +1 x75 +1 x87 +1 x99 +1 x111 +1 x123 +1 x135 +1 x147 = 1 ;
+1 x3 +1 x15 +1 x27 +1 x52 +1 x64 +1 x76 +1 x88 +1 x100 +1 x112 +1 x124 +1 x136 +1 x148 = 1 ;
+1 x4 +1 x16 +1 x28 +1 x40 +1 x65 +1 x77 +1 x89 +1 x101 +1 x113 +1 x125 +1 x137 +1 x149 = 1 ;
+1 x5 +1 x17 +1 x29 +1 x41 +1 x53 +1 x78 +1 x90 +1 x102 +1 x114 +1 x126 +1 x138 +1 x150 = 1 ;
+1 x6 +1 x18 +1 x30 +1 x42 +1 x54 +1 x66 +1 x91 +1 x103 +1 x115 +1 x127 +1 x139 +1 x151 = 1 ;
+1 x7 +1 x19 +1 x31 +1 x43 +1 x55 +1 x67 +1 x79 +1 x104 +1 x116 +1 x128 +1 x140 +1 x152 = 1 ;
+1 x8 +1 x20 +1 x32 +1 x44 +1 x56 +1 x68 +1 x80 +1 x92 +1 x117 +1 x129 +1 x141 +1 x153 = 1 ;
+1 x9 +1 x21 +1 x33 +1 x45 +1 x57 +1 x69 +1 x81 +1 x93 +1 x105 +1 x130 +1 x142 +1 x154 = 1 ;
+1 x10 +1 x22 +1 x34 +1 x46 +1 x58 +1 x70 +1 x82 +1 x94 +1 x106 +1 x118 +1 x143 +1 x155 = 1 ;
+1 x11 +1 x23 +1 x35 +1 x47 +1 x59 +1 x71 +1 x83 +1 x95 +1 x107 +1 x119 +1 x131 +1 x156 = 1 ;
+1 x12 +1 x24 +1 x36 +1 x48 +1 x60 +1 x72 +1 x84 +1 x96 +1 x108 +1 x120 +1 x132 +1 x144 = 1 ;

+1 x157 +2 x158 +4 x159 +8 x160 +16 x161  >= 0 ;
+1 x162 +2 x163 +4 x164 +8 x165 +16 x166  >= 0 ;
+1 x167 +2 x168 +4 x169 +8 x170 +16 x171  >= 0 ;
+1 x172 +2 x173 +4 x174 +8 x175 +16 x176  >= 0 ;
+1 x177 +2 x178 +4 x179 +8 x180 +16 x181  >= 0 ;
+1 x182 +2 x183 +4 x184 +8 x185 +16 x186  >= 0 ;
+1 x187 +2 x188 +4 x189 +8 x190 +16 x191  >= 0 ;
+1 x192 +2 x193 +4 x194 +8 x195 +16 x196  >= 0 ;
+1 x197 +2 x198 +4 x199 +8 x200 +16 x201  >= 0 ;
+1 x202 +2 x203 +4 x204 +8 x205 +16 x206  >= 0 ;
+1 x207 +2 x208 +4 x209 +8 x210 +16 x211  >= 0 ;
+1 x212 +2 x213 +4 x214 +8 x215 +16 x216  >= 0 ;
+1 x217 +2 x218 +4 x219 +8 x220 +16 x221  >= 0 ;


+1 x222 +2 x223 +4 x224 +8 x225 +16 x226  >= 0 ;
+1 x157 +2 x158 +4 x159 +8 x160 +16 x161 -1 x162 -2 x163 -4 x164 -8 x165 -16 x166 +13 x1 +1 x222 +2 x223 +4 x224 +8 x225 +16 x226  = 12 ;

+1 x227 +2 x228 +4 x229 +8 x230 +16 x231  >= 0 ;
+1 x157 +2 x158 +4 x159 +8 x160 +16 x161 -1 x167 -2 x168 -4 x169 -8 x170 -16 x171 +13 x2 +1 x227 +2 x228 +4 x229 +8 x230 +16 x231  = 12 ;

+1 x232 +2 x233 +4 x234 +8 x235 +16 x236  >= 0 ;
+1 x157 +2 x158 +4 x159 +8 x160 +16 x161 -1 x172 -2 x173 -4 x174 -8 x175 -16 x176 +13 x3 +1 x232 +2 x233 +4 x234 +8 x235 +16 x236  = 12 ;

+1 x237 +2 x238 +4 x239 +8 x240 +16 x241  >= 0 ;
+1 x157 +2 x158 +4 x159 +8 x160 +16 x161 -1 x177 -2 x178 -4 x179 -8 x180 -16 x181 +13 x4 +1 x237 +2 x238 +4 x239 +8 x240 +16 x241  = 12 ;

+1 x242 +2 x243 +4 x244 +8 x245 +16 x246  >= 0 ;
+1 x157 +2 x158 +4 x159 +8 x160 +16 x161 -1 x182 -2 x183 -4 x184 -8 x185 -16 x186 +13 x5 +1 x242 +2 x243 +4 x244 +8 x245 +16 x246  = 12 ;

+1 x247 +2 x248 +4 x249 +8 x250 +16 x251  >= 0 ;
+1 x157 +2 x158 +4 x159 +8 x160 +16 x161 -1 x187 -2 x188 -4 x189 -8 x190 -16 x191 +13 x6 +1 x247 +2 x248 +4 x249 +8 x250 +16 x251  = 12 ;

+1 x252 +2 x253 +4 x254 +8 x255 +16 x256  >= 0 ;
+1 x157 +2 x158 +4 x159 +8 x160 +16 x161 -1 x192 -2 x193 -4 x194 -8 x195 -16 x196 +13 x7 +1 x252 +2 x253 +4 x254 +8 x255 +16 x256  = 12 ;

+1 x257 +2 x258 +4 x259 +8 x260 +16 x261  >= 0 ;
+1 x157 +2 x158 +4 x159 +8 x160 +16 x161 -1 x197 -2 x198 -4 x199 -8 x200 -16 x201 +13 x8 +1 x257 +2 x258 +4 x259 +8 x260 +16 x261  = 12 ;

+1 x262 +2 x263 +4 x264 +8 x265 +16 x266  >= 0 ;
+1 x157 +2 x158 +4 x159 +8 x160 +16 x161 -1 x202 -2 x203 -4 x204 -8 x205 -16 x206 +13 x9 +1 x262 +2 x263 +4 x264 +8 x265 +16 x266  = 12 ;

+1 x267 +2 x268 +4 x269 +8 x270 +16 x271  >= 0 ;
+1 x157 +2 x158 +4 x159 +8 x160 +16 x161 -1 x207 -2 x208 -4 x209 -8 x210 -16 x211 +13 x10 +1 x267 +2 x268 +4 x269 +8 x270 +16 x271  = 12 ;

+1 x272 +2 x273 +4 x274 +8 x275 +16 x276  >= 0 ;
+1 x157 +2 x158 +4 x159 +8 x160 +16 x161 -1 x212 -2 x213 -4 x214 -8 x215 -16 x216 +13 x11 +1 x272 +2 x273 +4 x274 +8 x275 +16 x276  = 12 ;

+1 x277 +2 x278 +4 x279 +8 x280 +16 x281  >= 0 ;
+1 x157 +2 x158 +4 x159 +8 x160 +16 x161 -1 x217 -2 x218 -4 x219 -8 x220 -16 x221 +13 x12 +1 x277 +2 x278 +4 x279 +8 x280 +16 x281  = 12 ;

+1 x282 +2 x283 +4 x284 +8 x285 +16 x286  >= 0 ;
+1 x162 +2 x163 +4 x164 +8 x165 +16 x166 -1 x157 -2 x158 -4 x159 -8 x160 -16 x161 +13 x13 +1 x282 +2 x283 +4 x284 +8 x285 +16 x286  = 12 ;

+1 x287 +2 x288 +4 x289 +8 x290 +16 x291  >= 0 ;
+1 x162 +2 x163 +4 x164 +8 x165 +16 x166 -1 x167 -2 x168 -4 x169 -8 x170 -16 x171 +13 x14 +1 x287 +2 x288 +4 x289 +8 x290 +16 x291  = 12 ;

+1 x292 +2 x293 +4 x294 +8 x295 +16 x296  >= 0 ;
+1 x162 +2 x163 +4 x164 +8 x165 +16 x166 -1 x172 -2 x173 -4 x174 -8 x175 -16 x176 +13 x15 +1 x292 +2 x293 +4 x294 +8 x295 +16 x296  = 12 ;

+1 x297 +2 x298 +4 x299 +8 x300 +16 x301  >= 0 ;
+1 x162 +2 x163 +4 x164 +8 x165 +16 x166 -1 x177 -2 x178 -4 x179 -8 x180 -16 x181 +13 x16 +1 x297 +2 x298 +4 x299 +8 x300 +16 x301  = 12 ;

+1 x302 +2 x303 +4 x304 +8 x305 +16 x306  >= 0 ;
+1 x162 +2 x163 +4 x164 +8 x165 +16 x166 -1 x182 -2 x183 -4 x184 -8 x185 -16 x186 +13 x17 +1 x302 +2 x303 +4 x304 +8 x305 +16 x306  = 12 ;

+1 x307 +2 x308 +4 x309 +8 x310 +16 x311  >= 0 ;
+1 x162 +2 x163 +4 x164 +8 x165 +16 x166 -1 x187 -2 x188 -4 x189 -8 x190 -16 x191 +13 x18 +1 x307 +2 x308 +4 x309 +8 x310 +16 x311  = 12 ;

+1 x312 +2 x313 +4 x314 +8 x315 +16 x316  >= 0 ;
+1 x162 +2 x163 +4 x164 +8 x165 +16 x166 -1 x192 -2 x193 -4 x194 -8 x195 -16 x196 +13 x19 +1 x312 +2 x313 +4 x314 +8 x315 +16 x316  = 12 ;

+1 x317 +2 x318 +4 x319 +8 x320 +16 x321  >= 0 ;
+1 x162 +2 x163 +4 x164 +8 x165 +16 x166 -1 x197 -2 x198 -4 x199 -8 x200 -16 x201 +13 x20 +1 x317 +2 x318 +4 x319 +8 x320 +16 x321  = 12 ;

+1 x322 +2 x323 +4 x324 +8 x325 +16 x326  >= 0 ;
+1 x162 +2 x163 +4 x164 +8 x165 +16 x166 -1 x202 -2 x203 -4 x204 -8 x205 -16 x206 +13 x21 +1 x322 +2 x323 +4 x324 +8 x325 +16 x326  = 12 ;

+1 x327 +2 x328 +4 x329 +8 x330 +16 x331  >= 0 ;
+1 x162 +2 x163 +4 x164 +8 x165 +16 x166 -1 x207 -2 x208 -4 x209 -8 x210 -16 x211 +13 x22 +1 x327 +2 x328 +4 x329 +8 x330 +16 x331  = 12 ;

+1 x332 +2 x333 +4 x334 +8 x335 +16 x336  >= 0 ;
+1 x162 +2 x163 +4 x164 +8 x165 +16 x166 -1 x212 -2 x213 -4 x214 -8 x215 -16 x216 +13 x23 +1 x332 +2 x333 +4 x334 +8 x335 +16 x336  = 12 ;

+1 x337 +2 x338 +4 x339 +8 x340 +16 x341  >= 0 ;
+1 x162 +2 x163 +4 x164 +8 x165 +16 x166 -1 x217 -2 x218 -4 x219 -8 x220 -16 x221 +13 x24 +1 x337 +2 x338 +4 x339 +8 x340 +16 x341  = 12 ;

+1 x342 +2 x343 +4 x344 +8 x345 +16 x346  >= 0 ;
+1 x167 +2 x168 +4 x169 +8 x170 +16 x171 -1 x157 -2 x158 -4 x159 -8 x160 -16 x161 +13 x25 +1 x342 +2 x343 +4 x344 +8 x345 +16 x346  = 12 ;

+1 x347 +2 x348 +4 x349 +8 x350 +16 x351  >= 0 ;
+1 x167 +2 x168 +4 x169 +8 x170 +16 x171 -1 x162 -2 x163 -4 x164 -8 x165 -16 x166 +13 x26 +1 x347 +2 x348 +4 x349 +8 x350 +16 x351  = 12 ;

+1 x352 +2 x353 +4 x354 +8 x355 +16 x356  >= 0 ;
+1 x167 +2 x168 +4 x169 +8 x170 +16 x171 -1 x172 -2 x173 -4 x174 -8 x175 -16 x176 +13 x27 +1 x352 +2 x353 +4 x354 +8 x355 +16 x356  = 12 ;

+1 x357 +2 x358 +4 x359 +8 x360 +16 x361  >= 0 ;
+1 x167 +2 x168 +4 x169 +8 x170 +16 x171 -1 x177 -2 x178 -4 x179 -8 x180 -16 x181 +13 x28 +1 x357 +2 x358 +4 x359 +8 x360 +16 x361  = 12 ;

+1 x362 +2 x363 +4 x364 +8 x365 +16 x366  >= 0 ;
+1 x167 +2 x168 +4 x169 +8 x170 +16 x171 -1 x182 -2 x183 -4 x184 -8 x185 -16 x186 +13 x29 +1 x362 +2 x363 +4 x364 +8 x365 +16 x366  = 12 ;

+1 x367 +2 x368 +4 x369 +8 x370 +16 x371  >= 0 ;
+1 x167 +2 x168 +4 x169 +8 x170 +16 x171 -1 x187 -2 x188 -4 x189 -8 x190 -16 x191 +13 x30 +1 x367 +2 x368 +4 x369 +8 x370 +16 x371  = 12 ;

+1 x372 +2 x373 +4 x374 +8 x375 +16 x376  >= 0 ;
+1 x167 +2 x168 +4 x169 +8 x170 +16 x171 -1 x192 -2 x193 -4 x194 -8 x195 -16 x196 +13 x31 +1 x372 +2 x373 +4 x374 +8 x375 +16 x376  = 12 ;

+1 x377 +2 x378 +4 x379 +8 x380 +16 x381  >= 0 ;
+1 x167 +2 x168 +4 x169 +8 x170 +16 x171 -1 x197 -2 x198 -4 x199 -8 x200 -16 x201 +13 x32 +1 x377 +2 x378 +4 x379 +8 x380 +16 x381  = 12 ;

+1 x382 +2 x383 +4 x384 +8 x385 +16 x386  >= 0 ;
+1 x167 +2 x168 +4 x169 +8 x170 +16 x171 -1 x202 -2 x203 -4 x204 -8 x205 -16 x206 +13 x33 +1 x382 +2 x383 +4 x384 +8 x385 +16 x386  = 12 ;

+1 x387 +2 x388 +4 x389 +8 x390 +16 x391  >= 0 ;
+1 x167 +2 x168 +4 x169 +8 x170 +16 x171 -1 x207 -2 x208 -4 x209 -8 x210 -16 x211 +13 x34 +1 x387 +2 x388 +4 x389 +8 x390 +16 x391  = 12 ;

+1 x392 +2 x393 +4 x394 +8 x395 +16 x396  >= 0 ;
+1 x167 +2 x168 +4 x169 +8 x170 +16 x171 -1 x212 -2 x213 -4 x214 -8 x215 -16 x216 +13 x35 +1 x392 +2 x393 +4 x394 +8 x395 +16 x396  = 12 ;

+1 x397 +2 x398 +4 x399 +8 x400 +16 x401  >= 0 ;
+1 x167 +2 x168 +4 x169 +8 x170 +16 x171 -1 x217 -2 x218 -4 x219 -8 x220 -16 x221 +13 x36 +1 x397 +2 x398 +4 x399 +8 x400 +16 x401  = 12 ;

+1 x402 +2 x403 +4 x404 +8 x405 +16 x406  >= 0 ;
+1 x172 +2 x173 +4 x174 +8 x175 +16 x176 -1 x157 -2 x158 -4 x159 -8 x160 -16 x161 +13 x37 +1 x402 +2 x403 +4 x404 +8 x405 +16 x406  = 12 ;

+1 x407 +2 x408 +4 x409 +8 x410 +16 x411  >= 0 ;
+1 x172 +2 x173 +4 x174 +8 x175 +16 x176 -1 x162 -2 x163 -4 x164 -8 x165 -16 x166 +13 x38 +1 x407 +2 x408 +4 x409 +8 x410 +16 x411  = 12 ;

+1 x412 +2 x413 +4 x414 +8 x415 +16 x416  >= 0 ;
+1 x172 +2 x173 +4 x174 +8 x175 +16 x176 -1 x167 -2 x168 -4 x169 -8 x170 -16 x171 +13 x39 +1 x412 +2 x413 +4 x414 +8 x415 +16 x416  = 12 ;

+1 x417 +2 x418 +4 x419 +8 x420 +16 x421  >= 0 ;
+1 x172 +2 x173 +4 x174 +8 x175 +16 x176 -1 x177 -2 x178 -4 x179 -8 x180 -16 x181 +13 x40 +1 x417 +2 x418 +4 x419 +8 x420 +16 x421  = 12 ;

+1 x422 +2 x423 +4 x424 +8 x425 +16 x426  >= 0 ;
+1 x172 +2 x173 +4 x174 +8 x175 +16 x176 -1 x182 -2 x183 -4 x184 -8 x185 -16 x186 +13 x41 +1 x422 +2 x423 +4 x424 +8 x425 +16 x426  = 12 ;

+1 x427 +2 x428 +4 x429 +8 x430 +16 x431  >= 0 ;
+1 x172 +2 x173 +4 x174 +8 x175 +16 x176 -1 x187 -2 x188 -4 x189 -8 x190 -16 x191 +13 x42 +1 x427 +2 x428 +4 x429 +8 x430 +16 x431  = 12 ;

+1 x432 +2 x433 +4 x434 +8 x435 +16 x436  >= 0 ;
+1 x172 +2 x173 +4 x174 +8 x175 +16 x176 -1 x192 -2 x193 -4 x194 -8 x195 -16 x196 +13 x43 +1 x432 +2 x433 +4 x434 +8 x435 +16 x436  = 12 ;

+1 x437 +2 x438 +4 x439 +8 x440 +16 x441  >= 0 ;
+1 x172 +2 x173 +4 x174 +8 x175 +16 x176 -1 x197 -2 x198 -4 x199 -8 x200 -16 x201 +13 x44 +1 x437 +2 x438 +4 x439 +8 x440 +16 x441  = 12 ;

+1 x442 +2 x443 +4 x444 +8 x445 +16 x446  >= 0 ;
+1 x172 +2 x173 +4 x174 +8 x175 +16 x176 -1 x202 -2 x203 -4 x204 -8 x205 -16 x206 +13 x45 +1 x442 +2 x443 +4 x444 +8 x445 +16 x446  = 12 ;

+1 x447 +2 x448 +4 x449 +8 x450 +16 x451  >= 0 ;
+1 x172 +2 x173 +4 x174 +8 x175 +16 x176 -1 x207 -2 x208 -4 x209 -8 x210 -16 x211 +13 x46 +1 x447 +2 x448 +4 x449 +8 x450 +16 x451  = 12 ;

+1 x452 +2 x453 +4 x454 +8 x455 +16 x456  >= 0 ;
+1 x172 +2 x173 +4 x174 +8 x175 +16 x176 -1 x212 -2 x213 -4 x214 -8 x215 -16 x216 +13 x47 +1 x452 +2 x453 +4 x454 +8 x455 +16 x456  = 12 ;

+1 x457 +2 x458 +4 x459 +8 x460 +16 x461  >= 0 ;
+1 x172 +2 x173 +4 x174 +8 x175 +16 x176 -1 x217 -2 x218 -4 x219 -8 x220 -16 x221 +13 x48 +1 x457 +2 x458 +4 x459 +8 x460 +16 x461  = 12 ;

+1 x462 +2 x463 +4 x464 +8 x465 +16 x466  >= 0 ;
+1 x177 +2 x178 +4 x179 +8 x180 +16 x181 -1 x157 -2 x158 -4 x159 -8 x160 -16 x161 +13 x49 +1 x462 +2 x463 +4 x464 +8 x465 +16 x466  = 12 ;

+1 x467 +2 x468 +4 x469 +8 x470 +16 x471  >= 0 ;
+1 x177 +2 x178 +4 x179 +8 x180 +16 x181 -1 x162 -2 x163 -4 x164 -8 x165 -16 x166 +13 x50 +1 x467 +2 x468 +4 x469 +8 x470 +16 x471  = 12 ;

+1 x472 +2 x473 +4 x474 +8 x475 +16 x476  >= 0 ;
+1 x177 +2 x178 +4 x179 +8 x180 +16 x181 -1 x167 -2 x168 -4 x169 -8 x170 -16 x171 +13 x51 +1 x472 +2 x473 +4 x474 +8 x475 +16 x476  = 12 ;

+1 x477 +2 x478 +4 x479 +8 x480 +16 x481  >= 0 ;
+1 x177 +2 x178 +4 x179 +8 x180 +16 x181 -1 x172 -2 x173 -4 x174 -8 x175 -16 x176 +13 x52 +1 x477 +2 x478 +4 x479 +8 x480 +16 x481  = 12 ;

+1 x482 +2 x483 +4 x484 +8 x485 +16 x486  >= 0 ;
+1 x177 +2 x178 +4 x179 +8 x180 +16 x181 -1 x182 -2 x183 -4 x184 -8 x185 -16 x186 +13 x53 +1 x482 +2 x483 +4 x484 +8 x485 +16 x486  = 12 ;

+1 x487 +2 x488 +4 x489 +8 x490 +16 x491  >= 0 ;
+1 x177 +2 x178 +4 x179 +8 x180 +16 x181 -1 x187 -2 x188 -4 x189 -8 x190 -16 x191 +13 x54 +1 x487 +2 x488 +4 x489 +8 x490 +16 x491  = 12 ;

+1 x492 +2 x493 +4 x494 +8 x495 +16 x496  >= 0 ;
+1 x177 +2 x178 +4 x179 +8 x180 +16 x181 -1 x192 -2 x193 -4 x194 -8 x195 -16 x196 +13 x55 +1 x492 +2 x493 +4 x494 +8 x495 +16 x496  = 12 ;

+1 x497 +2 x498 +4 x499 +8 x500 +16 x501  >= 0 ;
+1 x177 +2 x178 +4 x179 +8 x180 +16 x181 -1 x197 -2 x198 -4 x199 -8 x200 -16 x201 +13 x56 +1 x497 +2 x498 +4 x499 +8 x500 +16 x501  = 12 ;

+1 x502 +2 x503 +4 x504 +8 x505 +16 x506  >= 0 ;
+1 x177 +2 x178 +4 x179 +8 x180 +16 x181 -1 x202 -2 x203 -4 x204 -8 x205 -16 x206 +13 x57 +1 x502 +2 x503 +4 x504 +8 x505 +16 x506  = 12 ;

+1 x507 +2 x508 +4 x509 +8 x510 +16 x511  >= 0 ;
+1 x177 +2 x178 +4 x179 +8 x180 +16 x181 -1 x207 -2 x208 -4 x209 -8 x210 -16 x211 +13 x58 +1 x507 +2 x508 +4 x509 +8 x510 +16 x511  = 12 ;

+1 x512 +2 x513 +4 x514 +8 x515 +16 x516  >= 0 ;
+1 x177 +2 x178 +4 x179 +8 x180 +16 x181 -1 x212 -2 x213 -4 x214 -8 x215 -16 x216 +13 x59 +1 x512 +2 x513 +4 x514 +8 x515 +16 x516  = 12 ;

+1 x517 +2 x518 +4 x519 +8 x520 +16 x521  >= 0 ;
+1 x177 +2 x178 +4 x179 +8 x180 +16 x181 -1 x217 -2 x218 -4 x219 -8 x220 -16 x221 +13 x60 +1 x517 +2 x518 +4 x519 +8 x520 +16 x521  = 12 ;

+1 x522 +2 x523 +4 x524 +8 x525 +16 x526  >= 0 ;
+1 x182 +2 x183 +4 x184 +8 x185 +16 x186 -1 x157 -2 x158 -4 x159 -8 x160 -16 x161 +13 x61 +1 x522 +2 x523 +4 x524 +8 x525 +16 x526  = 12 ;

+1 x527 +2 x528 +4 x529 +8 x530 +16 x531  >= 0 ;
+1 x182 +2 x183 +4 x184 +8 x185 +16 x186 -1 x162 -2 x163 -4 x164 -8 x165 -16 x166 +13 x62 +1 x527 +2 x528 +4 x529 +8 x530 +16 x531  = 12 ;

+1 x532 +2 x533 +4 x534 +8 x535 +16 x536  >= 0 ;
+1 x182 +2 x183 +4 x184 +8 x185 +16 x186 -1 x167 -2 x168 -4 x169 -8 x170 -16 x171 +13 x63 +1 x532 +2 x533 +4 x534 +8 x535 +16 x536  = 12 ;

+1 x537 +2 x538 +4 x539 +8 x540 +16 x541  >= 0 ;
+1 x182 +2 x183 +4 x184 +8 x185 +16 x186 -1 x172 -2 x173 -4 x174 -8 x175 -16 x176 +13 x64 +1 x537 +2 x538 +4 x539 +8 x540 +16 x541  = 12 ;

+1 x542 +2 x543 +4 x544 +8 x545 +16 x546  >= 0 ;
+1 x182 +2 x183 +4 x184 +8 x185 +16 x186 -1 x177 -2 x178 -4 x179 -8 x180 -16 x181 +13 x65 +1 x542 +2 x543 +4 x544 +8 x545 +16 x546  = 12 ;

+1 x547 +2 x548 +4 x549 +8 x550 +16 x551  >= 0 ;
+1 x182 +2 x183 +4 x184 +8 x185 +16 x186 -1 x187 -2 x188 -4 x189 -8 x190 -16 x191 +13 x66 +1 x547 +2 x548 +4 x549 +8 x550 +16 x551  = 12 ;

+1 x552 +2 x553 +4 x554 +8 x555 +16 x556  >= 0 ;
+1 x182 +2 x183 +4 x184 +8 x185 +16 x186 -1 x192 -2 x193 -4 x194 -8 x195 -16 x196 +13 x67 +1 x552 +2 x553 +4 x554 +8 x555 +16 x556  = 12 ;

+1 x557 +2 x558 +4 x559 +8 x560 +16 x561  >= 0 ;
+1 x182 +2 x183 +4 x184 +8 x185 +16 x186 -1 x197 -2 x198 -4 x199 -8 x200 -16 x201 +13 x68 +1 x557 +2 x558 +4 x559 +8 x560 +16 x561  = 12 ;

+1 x562 +2 x563 +4 x564 +8 x565 +16 x566  >= 0 ;
+1 x182 +2 x183 +4 x184 +8 x185 +16 x186 -1 x202 -2 x203 -4 x204 -8 x205 -16 x206 +13 x69 +1 x562 +2 x563 +4 x564 +8 x565 +16 x566  = 12 ;

+1 x567 +2 x568 +4 x569 +8 x570 +16 x571  >= 0 ;
+1 x182 +2 x183 +4 x184 +8 x185 +16 x186 -1 x207 -2 x208 -4 x209 -8 x210 -16 x211 +13 x70 +1 x567 +2 x568 +4 x569 +8 x570 +16 x571  = 12 ;

+1 x572 +2 x573 +4 x574 +8 x575 +16 x576  >= 0 ;
+1 x182 +2 x183 +4 x184 +8 x185 +16 x186 -1 x212 -2 x213 -4 x214 -8 x215 -16 x216 +13 x71 +1 x572 +2 x573 +4 x574 +8 x575 +16 x576  = 12 ;

+1 x577 +2 x578 +4 x579 +8 x580 +16 x581  >= 0 ;
+1 x182 +2 x183 +4 x184 +8 x185 +16 x186 -1 x217 -2 x218 -4 x219 -8 x220 -16 x221 +13 x72 +1 x577 +2 x578 +4 x579 +8 x580 +16 x581  = 12 ;

+1 x582 +2 x583 +4 x584 +8 x585 +16 x586  >= 0 ;
+1 x187 +2 x188 +4 x189 +8 x190 +16 x191 -1 x157 -2 x158 -4 x159 -8 x160 -16 x161 +13 x73 +1 x582 +2 x583 +4 x584 +8 x585 +16 x586  = 12 ;

+1 x587 +2 x588 +4 x589 +8 x590 +16 x591  >= 0 ;
+1 x187 +2 x188 +4 x189 +8 x190 +16 x191 -1 x162 -2 x163 -4 x164 -8 x165 -16 x166 +13 x74 +1 x587 +2 x588 +4 x589 +8 x590 +16 x591  = 12 ;

+1 x592 +2 x593 +4 x594 +8 x595 +16 x596  >= 0 ;
+1 x187 +2 x188 +4 x189 +8 x190 +16 x191 -1 x167 -2 x168 -4 x169 -8 x170 -16 x171 +13 x75 +1 x592 +2 x593 +4 x594 +8 x595 +16 x596  = 12 ;

+1 x597 +2 x598 +4 x599 +8 x600 +16 x601  >= 0 ;
+1 x187 +2 x188 +4 x189 +8 x190 +16 x191 -1 x172 -2 x173 -4 x174 -8 x175 -16 x176 +13 x76 +1 x597 +2 x598 +4 x599 +8 x600 +16 x601  = 12 ;

+1 x602 +2 x603 +4 x604 +8 x605 +16 x606  >= 0 ;
+1 x187 +2 x188 +4 x189 +8 x190 +16 x191 -1 x177 -2 x178 -4 x179 -8 x180 -16 x181 +13 x77 +1 x602 +2 x603 +4 x604 +8 x605 +16 x606  = 12 ;

+1 x607 +2 x608 +4 x609 +8 x610 +16 x611  >= 0 ;
+1 x187 +2 x188 +4 x189 +8 x190 +16 x191 -1 x182 -2 x183 -4 x184 -8 x185 -16 x186 +13 x78 +1 x607 +2 x608 +4 x609 +8 x610 +16 x611  = 12 ;

+1 x612 +2 x613 +4 x614 +8 x615 +16 x616  >= 0 ;
+1 x187 +2 x188 +4 x189 +8 x190 +16 x191 -1 x192 -2 x193 -4 x194 -8 x195 -16 x196 +13 x79 +1 x612 +2 x613 +4 x614 +8 x615 +16 x616  = 12 ;

+1 x617 +2 x618 +4 x619 +8 x620 +16 x621  >= 0 ;
+1 x187 +2 x188 +4 x189 +8 x190 +16 x191 -1 x197 -2 x198 -4 x199 -8 x200 -16 x201 +13 x80 +1 x617 +2 x618 +4 x619 +8 x620 +16 x621  = 12 ;

+1 x622 +2 x623 +4 x624 +8 x625 +16 x626  >= 0 ;
+1 x187 +2 x188 +4 x189 +8 x190 +16 x191 -1 x202 -2 x203 -4 x204 -8 x205 -16 x206 +13 x81 +1 x622 +2 x623 +4 x624 +8 x625 +16 x626  = 12 ;

+1 x627 +2 x628 +4 x629 +8 x630 +16 x631  >= 0 ;
+1 x187 +2 x188 +4 x189 +8 x190 +16 x191 -1 x207 -2 x208 -4 x209 -8 x210 -16 x211 +13 x82 +1 x627 +2 x628 +4 x629 +8 x630 +16 x631  = 12 ;

+1 x632 +2 x633 +4 x634 +8 x635 +16 x636  >= 0 ;
+1 x187 +2 x188 +4 x189 +8 x190 +16 x191 -1 x212 -2 x213 -4 x214 -8 x215 -16 x216 +13 x83 +1 x632 +2 x633 +4 x634 +8 x635 +16 x636  = 12 ;

+1 x637 +2 x638 +4 x639 +8 x640 +16 x641  >= 0 ;
+1 x187 +2 x188 +4 x189 +8 x190 +16 x191 -1 x217 -2 x218 -4 x219 -8 x220 -16 x221 +13 x84 +1 x637 +2 x638 +4 x639 +8 x640 +16 x641  = 12 ;

+1 x642 +2 x643 +4 x644 +8 x645 +16 x646  >= 0 ;
+1 x192 +2 x193 +4 x194 +8 x195 +16 x196 -1 x157 -2 x158 -4 x159 -8 x160 -16 x161 +13 x85 +1 x642 +2 x643 +4 x644 +8 x645 +16 x646  = 12 ;

+1 x647 +2 x648 +4 x649 +8 x650 +16 x651  >= 0 ;
+1 x192 +2 x193 +4 x194 +8 x195 +16 x196 -1 x162 -2 x163 -4 x164 -8 x165 -16 x166 +13 x86 +1 x647 +2 x648 +4 x649 +8 x650 +16 x651  = 12 ;

+1 x652 +2 x653 +4 x654 +8 x655 +16 x656  >= 0 ;
+1 x192 +2 x193 +4 x194 +8 x195 +16 x196 -1 x167 -2 x168 -4 x169 -8 x170 -16 x171 +13 x87 +1 x652 +2 x653 +4 x654 +8 x655 +16 x656  = 12 ;

+1 x657 +2 x658 +4 x659 +8 x660 +16 x661  >= 0 ;
+1 x192 +2 x193 +4 x194 +8 x195 +16 x196 -1 x172 -2 x173 -4 x174 -8 x175 -16 x176 +13 x88 +1 x657 +2 x658 +4 x659 +8 x660 +16 x661  = 12 ;

+1 x662 +2 x663 +4 x664 +8 x665 +16 x666  >= 0 ;
+1 x192 +2 x193 +4 x194 +8 x195 +16 x196 -1 x177 -2 x178 -4 x179 -8 x180 -16 x181 +13 x89 +1 x662 +2 x663 +4 x664 +8 x665 +16 x666  = 12 ;

+1 x667 +2 x668 +4 x669 +8 x670 +16 x671  >= 0 ;
+1 x192 +2 x193 +4 x194 +8 x195 +16 x196 -1 x182 -2 x183 -4 x184 -8 x185 -16 x186 +13 x90 +1 x667 +2 x668 +4 x669 +8 x670 +16 x671  = 12 ;

+1 x672 +2 x673 +4 x674 +8 x675 +16 x676  >= 0 ;
+1 x192 +2 x193 +4 x194 +8 x195 +16 x196 -1 x187 -2 x188 -4 x189 -8 x190 -16 x191 +13 x91 +1 x672 +2 x673 +4 x674 +8 x675 +16 x676  = 12 ;

+1 x677 +2 x678 +4 x679 +8 x680 +16 x681  >= 0 ;
+1 x192 +2 x193 +4 x194 +8 x195 +16 x196 -1 x197 -2 x198 -4 x199 -8 x200 -16 x201 +13 x92 +1 x677 +2 x678 +4 x679 +8 x680 +16 x681  = 12 ;

+1 x682 +2 x683 +4 x684 +8 x685 +16 x686  >= 0 ;
+1 x192 +2 x193 +4 x194 +8 x195 +16 x196 -1 x202 -2 x203 -4 x204 -8 x205 -16 x206 +13 x93 +1 x682 +2 x683 +4 x684 +8 x685 +16 x686  = 12 ;

+1 x687 +2 x688 +4 x689 +8 x690 +16 x691  >= 0 ;
+1 x192 +2 x193 +4 x194 +8 x195 +16 x196 -1 x207 -2 x208 -4 x209 -8 x210 -16 x211 +13 x94 +1 x687 +2 x688 +4 x689 +8 x690 +16 x691  = 12 ;

+1 x692 +2 x693 +4 x694 +8 x695 +16 x696  >= 0 ;
+1 x192 +2 x193 +4 x194 +8 x195 +16 x196 -1 x212 -2 x213 -4 x214 -8 x215 -16 x216 +13 x95 +1 x692 +2 x693 +4 x694 +8 x695 +16 x696  = 12 ;

+1 x697 +2 x698 +4 x699 +8 x700 +16 x701  >= 0 ;
+1 x192 +2 x193 +4 x194 +8 x195 +16 x196 -1 x217 -2 x218 -4 x219 -8 x220 -16 x221 +13 x96 +1 x697 +2 x698 +4 x699 +8 x700 +16 x701  = 12 ;

+1 x702 +2 x703 +4 x704 +8 x705 +16 x706  >= 0 ;
+1 x197 +2 x198 +4 x199 +8 x200 +16 x201 -1 x157 -2 x158 -4 x159 -8 x160 -16 x161 +13 x97 +1 x702 +2 x703 +4 x704 +8 x705 +16 x706  = 12 ;

+1 x707 +2 x708 +4 x709 +8 x710 +16 x711  >= 0 ;
+1 x197 +2 x198 +4 x199 +8 x200 +16 x201 -1 x162 -2 x163 -4 x164 -8 x165 -16 x166 +13 x98 +1 x707 +2 x708 +4 x709 +8 x710 +16 x711  = 12 ;

+1 x712 +2 x713 +4 x714 +8 x715 +16 x716  >= 0 ;
+1 x197 +2 x198 +4 x199 +8 x200 +16 x201 -1 x167 -2 x168 -4 x169 -8 x170 -16 x171 +13 x99 +1 x712 +2 x713 +4 x714 +8 x715 +16 x716  = 12 ;

+1 x717 +2 x718 +4 x719 +8 x720 +16 x721  >= 0 ;
+1 x197 +2 x198 +4 x199 +8 x200 +16 x201 -1 x172 -2 x173 -4 x174 -8 x175 -16 x176 +13 x100 +1 x717 +2 x718 +4 x719 +8 x720 +16 x721  = 12 ;

+1 x722 +2 x723 +4 x724 +8 x725 +16 x726  >= 0 ;
+1 x197 +2 x198 +4 x199 +8 x200 +16 x201 -1 x177 -2 x178 -4 x179 -8 x180 -16 x181 +13 x101 +1 x722 +2 x723 +4 x724 +8 x725 +16 x726  = 12 ;

+1 x727 +2 x728 +4 x729 +8 x730 +16 x731  >= 0 ;
+1 x197 +2 x198 +4 x199 +8 x200 +16 x201 -1 x182 -2 x183 -4 x184 -8 x185 -16 x186 +13 x102 +1 x727 +2 x728 +4 x729 +8 x730 +16 x731  = 12 ;

+1 x732 +2 x733 +4 x734 +8 x735 +16 x736  >= 0 ;
+1 x197 +2 x198 +4 x199 +8 x200 +16 x201 -1 x187 -2 x188 -4 x189 -8 x190 -16 x191 +13 x103 +1 x732 +2 x733 +4 x734 +8 x735 +16 x736  = 12 ;

+1 x737 +2 x738 +4 x739 +8 x740 +16 x741  >= 0 ;
+1 x197 +2 x198 +4 x199 +8 x200 +16 x201 -1 x192 -2 x193 -4 x194 -8 x195 -16 x196 +13 x104 +1 x737 +2 x738 +4 x739 +8 x740 +16 x741  = 12 ;

+1 x742 +2 x743 +4 x744 +8 x745 +16 x746  >= 0 ;
+1 x197 +2 x198 +4 x199 +8 x200 +16 x201 -1 x202 -2 x203 -4 x204 -8 x205 -16 x206 +13 x105 +1 x742 +2 x743 +4 x744 +8 x745 +16 x746  = 12 ;

+1 x747 +2 x748 +4 x749 +8 x750 +16 x751  >= 0 ;
+1 x197 +2 x198 +4 x199 +8 x200 +16 x201 -1 x207 -2 x208 -4 x209 -8 x210 -16 x211 +13 x106 +1 x747 +2 x748 +4 x749 +8 x750 +16 x751  = 12 ;

+1 x752 +2 x753 +4 x754 +8 x755 +16 x756  >= 0 ;
+1 x197 +2 x198 +4 x199 +8 x200 +16 x201 -1 x212 -2 x213 -4 x214 -8 x215 -16 x216 +13 x107 +1 x752 +2 x753 +4 x754 +8 x755 +16 x756  = 12 ;

+1 x757 +2 x758 +4 x759 +8 x760 +16 x761  >= 0 ;
+1 x197 +2 x198 +4 x199 +8 x200 +16 x201 -1 x217 -2 x218 -4 x219 -8 x220 -16 x221 +13 x108 +1 x757 +2 x758 +4 x759 +8 x760 +16 x761  = 12 ;

+1 x762 +2 x763 +4 x764 +8 x765 +16 x766  >= 0 ;
+1 x202 +2 x203 +4 x204 +8 x205 +16 x206 -1 x157 -2 x158 -4 x159 -8 x160 -16 x161 +13 x109 +1 x762 +2 x763 +4 x764 +8 x765 +16 x766  = 12 ;

+1 x767 +2 x768 +4 x769 +8 x770 +16 x771  >= 0 ;
+1 x202 +2 x203 +4 x204 +8 x205 +16 x206 -1 x162 -2 x163 -4 x164 -8 x165 -16 x166 +13 x110 +1 x767 +2 x768 +4 x769 +8 x770 +16 x771  = 12 ;

+1 x772 +2 x773 +4 x774 +8 x775 +16 x776  >= 0 ;
+1 x202 +2 x203 +4 x204 +8 x205 +16 x206 -1 x167 -2 x168 -4 x169 -8 x170 -16 x171 +13 x111 +1 x772 +2 x773 +4 x774 +8 x775 +16 x776  = 12 ;

+1 x777 +2 x778 +4 x779 +8 x780 +16 x781  >= 0 ;
+1 x202 +2 x203 +4 x204 +8 x205 +16 x206 -1 x172 -2 x173 -4 x174 -8 x175 -16 x176 +13 x112 +1 x777 +2 x778 +4 x779 +8 x780 +16 x781  = 12 ;

+1 x782 +2 x783 +4 x784 +8 x785 +16 x786  >= 0 ;
+1 x202 +2 x203 +4 x204 +8 x205 +16 x206 -1 x177 -2 x178 -4 x179 -8 x180 -16 x181 +13 x113 +1 x782 +2 x783 +4 x784 +8 x785 +16 x786  = 12 ;

+1 x787 +2 x788 +4 x789 +8 x790 +16 x791  >= 0 ;
+1 x202 +2 x203 +4 x204 +8 x205 +16 x206 -1 x182 -2 x183 -4 x184 -8 x185 -16 x186 +13 x114 +1 x787 +2 x788 +4 x789 +8 x790 +16 x791  = 12 ;

+1 x792 +2 x793 +4 x794 +8 x795 +16 x796  >= 0 ;
+1 x202 +2 x203 +4 x204 +8 x205 +16 x206 -1 x187 -2 x188 -4 x189 -8 x190 -16 x191 +13 x115 +1 x792 +2 x793 +4 x794 +8 x795 +16 x796  = 12 ;

+1 x797 +2 x798 +4 x799 +8 x800 +16 x801  >= 0 ;
+1 x202 +2 x203 +4 x204 +8 x205 +16 x206 -1 x192 -2 x193 -4 x194 -8 x195 -16 x196 +13 x116 +1 x797 +2 x798 +4 x799 +8 x800 +16 x801  = 12 ;

+1 x802 +2 x803 +4 x804 +8 x805 +16 x806  >= 0 ;
+1 x202 +2 x203 +4 x204 +8 x205 +16 x206 -1 x197 -2 x198 -4 x199 -8 x200 -16 x201 +13 x117 +1 x802 +2 x803 +4 x804 +8 x805 +16 x806  = 12 ;

+1 x807 +2 x808 +4 x809 +8 x810 +16 x811  >= 0 ;
+1 x202 +2 x203 +4 x204 +8 x205 +16 x206 -1 x207 -2 x208 -4 x209 -8 x210 -16 x211 +13 x118 +1 x807 +2 x808 +4 x809 +8 x810 +16 x811  = 12 ;

+1 x812 +2 x813 +4 x814 +8 x815 +16 x816  >= 0 ;
+1 x202 +2 x203 +4 x204 +8 x205 +16 x206 -1 x212 -2 x213 -4 x214 -8 x215 -16 x216 +13 x119 +1 x812 +2 x813 +4 x814 +8 x815 +16 x816  = 12 ;

+1 x817 +2 x818 +4 x819 +8 x820 +16 x821  >= 0 ;
+1 x202 +2 x203 +4 x204 +8 x205 +16 x206 -1 x217 -2 x218 -4 x219 -8 x220 -16 x221 +13 x120 +1 x817 +2 x818 +4 x819 +8 x820 +16 x821  = 12 ;

+1 x822 +2 x823 +4 x824 +8 x825 +16 x826  >= 0 ;
+1 x207 +2 x208 +4 x209 +8 x210 +16 x211 -1 x157 -2 x158 -4 x159 -8 x160 -16 x161 +13 x121 +1 x822 +2 x823 +4 x824 +8 x825 +16 x826  = 12 ;

+1 x827 +2 x828 +4 x829 +8 x830 +16 x831  >= 0 ;
+1 x207 +2 x208 +4 x209 +8 x210 +16 x211 -1 x162 -2 x163 -4 x164 -8 x165 -16 x166 +13 x122 +1 x827 +2 x828 +4 x829 +8 x830 +16 x831  = 12 ;

+1 x832 +2 x833 +4 x834 +8 x835 +16 x836  >= 0 ;
+1 x207 +2 x208 +4 x209 +8 x210 +16 x211 -1 x167 -2 x168 -4 x169 -8 x170 -16 x171 +13 x123 +1 x832 +2 x833 +4 x834 +8 x835 +16 x836  = 12 ;

+1 x837 +2 x838 +4 x839 +8 x840 +16 x841  >= 0 ;
+1 x207 +2 x208 +4 x209 +8 x210 +16 x211 -1 x172 -2 x173 -4 x174 -8 x175 -16 x176 +13 x124 +1 x837 +2 x838 +4 x839 +8 x840 +16 x841  = 12 ;

+1 x842 +2 x843 +4 x844 +8 x845 +16 x846  >= 0 ;
+1 x207 +2 x208 +4 x209 +8 x210 +16 x211 -1 x177 -2 x178 -4 x179 -8 x180 -16 x181 +13 x125 +1 x842 +2 x843 +4 x844 +8 x845 +16 x846  = 12 ;

+1 x847 +2 x848 +4 x849 +8 x850 +16 x851  >= 0 ;
+1 x207 +2 x208 +4 x209 +8 x210 +16 x211 -1 x182 -2 x183 -4 x184 -8 x185 -16 x186 +13 x126 +1 x847 +2 x848 +4 x849 +8 x850 +16 x851  = 12 ;

+1 x852 +2 x853 +4 x854 +8 x855 +16 x856  >= 0 ;
+1 x207 +2 x208 +4 x209 +8 x210 +16 x211 -1 x187 -2 x188 -4 x189 -8 x190 -16 x191 +13 x127 +1 x852 +2 x853 +4 x854 +8 x855 +16 x856  = 12 ;

+1 x857 +2 x858 +4 x859 +8 x860 +16 x861  >= 0 ;
+1 x207 +2 x208 +4 x209 +8 x210 +16 x211 -1 x192 -2 x193 -4 x194 -8 x195 -16 x196 +13 x128 +1 x857 +2 x858 +4 x859 +8 x860 +16 x861  = 12 ;

+1 x862 +2 x863 +4 x864 +8 x865 +16 x866  >= 0 ;
+1 x207 +2 x208 +4 x209 +8 x210 +16 x211 -1 x197 -2 x198 -4 x199 -8 x200 -16 x201 +13 x129 +1 x862 +2 x863 +4 x864 +8 x865 +16 x866  = 12 ;

+1 x867 +2 x868 +4 x869 +8 x870 +16 x871  >= 0 ;
+1 x207 +2 x208 +4 x209 +8 x210 +16 x211 -1 x202 -2 x203 -4 x204 -8 x205 -16 x206 +13 x130 +1 x867 +2 x868 +4 x869 +8 x870 +16 x871  = 12 ;

+1 x872 +2 x873 +4 x874 +8 x875 +16 x876  >= 0 ;
+1 x207 +2 x208 +4 x209 +8 x210 +16 x211 -1 x212 -2 x213 -4 x214 -8 x215 -16 x216 +13 x131 +1 x872 +2 x873 +4 x874 +8 x875 +16 x876  = 12 ;

+1 x877 +2 x878 +4 x879 +8 x880 +16 x881  >= 0 ;
+1 x207 +2 x208 +4 x209 +8 x210 +16 x211 -1 x217 -2 x218 -4 x219 -8 x220 -16 x221 +13 x132 +1 x877 +2 x878 +4 x879 +8 x880 +16 x881  = 12 ;

+1 x882 +2 x883 +4 x884 +8 x885 +16 x886  >= 0 ;
+1 x212 +2 x213 +4 x214 +8 x215 +16 x216 -1 x157 -2 x158 -4 x159 -8 x160 -16 x161 +13 x133 +1 x882 +2 x883 +4 x884 +8 x885 +16 x886  = 12 ;

+1 x887 +2 x888 +4 x889 +8 x890 +16 x891  >= 0 ;
+1 x212 +2 x213 +4 x214 +8 x215 +16 x216 -1 x162 -2 x163 -4 x164 -8 x165 -16 x166 +13 x134 +1 x887 +2 x888 +4 x889 +8 x890 +16 x891  = 12 ;

+1 x892 +2 x893 +4 x894 +8 x895 +16 x896  >= 0 ;
+1 x212 +2 x213 +4 x214 +8 x215 +16 x216 -1 x167 -2 x168 -4 x169 -8 x170 -16 x171 +13 x135 +1 x892 +2 x893 +4 x894 +8 x895 +16 x896  = 12 ;

+1 x897 +2 x898 +4 x899 +8 x900 +16 x901  >= 0 ;
+1 x212 +2 x213 +4 x214 +8 x215 +16 x216 -1 x172 -2 x173 -4 x174 -8 x175 -16 x176 +13 x136 +1 x897 +2 x898 +4 x899 +8 x900 +16 x901  = 12 ;

+1 x902 +2 x903 +4 x904 +8 x905 +16 x906  >= 0 ;
+1 x212 +2 x213 +4 x214 +8 x215 +16 x216 -1 x177 -2 x178 -4 x179 -8 x180 -16 x181 +13 x137 +1 x902 +2 x903 +4 x904 +8 x905 +16 x906  = 12 ;

+1 x907 +2 x908 +4 x909 +8 x910 +16 x911  >= 0 ;
+1 x212 +2 x213 +4 x214 +8 x215 +16 x216 -1 x182 -2 x183 -4 x184 -8 x185 -16 x186 +13 x138 +1 x907 +2 x908 +4 x909 +8 x910 +16 x911  = 12 ;

+1 x912 +2 x913 +4 x914 +8 x915 +16 x916  >= 0 ;
+1 x212 +2 x213 +4 x214 +8 x215 +16 x216 -1 x187 -2 x188 -4 x189 -8 x190 -16 x191 +13 x139 +1 x912 +2 x913 +4 x914 +8 x915 +16 x916  = 12 ;

+1 x917 +2 x918 +4 x919 +8 x920 +16 x921  >= 0 ;
+1 x212 +2 x213 +4 x214 +8 x215 +16 x216 -1 x192 -2 x193 -4 x194 -8 x195 -16 x196 +13 x140 +1 x917 +2 x918 +4 x919 +8 x920 +16 x921  = 12 ;

+1 x922 +2 x923 +4 x924 +8 x925 +16 x926  >= 0 ;
+1 x212 +2 x213 +4 x214 +8 x215 +16 x216 -1 x197 -2 x198 -4 x199 -8 x200 -16 x201 +13 x141 +1 x922 +2 x923 +4 x924 +8 x925 +16 x926  = 12 ;

+1 x927 +2 x928 +4 x929 +8 x930 +16 x931  >= 0 ;
+1 x212 +2 x213 +4 x214 +8 x215 +16 x216 -1 x202 -2 x203 -4 x204 -8 x205 -16 x206 +13 x142 +1 x927 +2 x928 +4 x929 +8 x930 +16 x931  = 12 ;

+1 x932 +2 x933 +4 x934 +8 x935 +16 x936  >= 0 ;
+1 x212 +2 x213 +4 x214 +8 x215 +16 x216 -1 x207 -2 x208 -4 x209 -8 x210 -16 x211 +13 x143 +1 x932 +2 x933 +4 x934 +8 x935 +16 x936  = 12 ;

+1 x937 +2 x938 +4 x939 +8 x940 +16 x941  >= 0 ;
+1 x212 +2 x213 +4 x214 +8 x215 +16 x216 -1 x217 -2 x218 -4 x219 -8 x220 -16 x221 +13 x144 +1 x937 +2 x938 +4 x939 +8 x940 +16 x941  = 12 ;